Route #1:
Route #2: 3 11 4
Route #3: 26
Route #4: 10 17 1 24 29
Route #5: 7
Route #6: 2 19 31 9
Route #7: 30 12
Route #8: 13
Route #9: 16 21 5
Route #10: 14
Route #11: 18 23 8 22 15 25 20
Route #12: 27
Route #13: 28 6

Cost: 2001.0147329027418
